c automorphism group size 2
p cnf 130 3828
1 2 3 4 5 6 7 8 9 10 11 12 13 14 15 16 17 18 19 20 21 22 23 24 25 26 0
27 28 29 30 31 32 33 34 35 36 37 38 39 40 41 42 43 44 45 46 47 48 49 50 51 52 0
53 54 55 56 57 58 59 60 61 62 63 64 65 66 67 68 69 70 71 72 73 74 75 76 77 78 0
79 80 81 82 83 84 85 86 87 88 89 90 91 92 93 94 95 96 97 98 99 100 101 102 103 104 0
105 106 107 108 109 110 111 112 113 114 115 116 117 118 119 120 121 122 123 124 125 126 127 128 129 130 0
-1 -2 0
-1 -3 0
-1 -4 0
-1 -5 0
-1 -6 0
-1 -7 0
-1 -8 0
-1 -9 0
-1 -10 0
-1 -11 0
-1 -12 0
-1 -13 0
-1 -14 0
-1 -15 0
-1 -16 0
-1 -17 0
-1 -18 0
-1 -19 0
-1 -20 0
-1 -21 0
-1 -22 0
-1 -23 0
-1 -24 0
-1 -25 0
-1 -26 0
-2 -3 0
-2 -4 0
-2 -5 0
-2 -6 0
-2 -7 0
-2 -8 0
-2 -9 0
-2 -10 0
-2 -11 0
-2 -12 0
-2 -13 0
-2 -14 0
-2 -15 0
-2 -16 0
-2 -17 0
-2 -18 0
-2 -19 0
-2 -20 0
-2 -21 0
-2 -22 0
-2 -23 0
-2 -24 0
-2 -25 0
-2 -26 0
-3 -4 0
-3 -5 0
-3 -6 0
-3 -7 0
-3 -8 0
-3 -9 0
-3 -10 0
-3 -11 0
-3 -12 0
-3 -13 0
-3 -14 0
-3 -15 0
-3 -16 0
-3 -17 0
-3 -18 0
-3 -19 0
-3 -20 0
-3 -21 0
-3 -22 0
-3 -23 0
-3 -24 0
-3 -25 0
-3 -26 0
-4 -5 0
-4 -6 0
-4 -7 0
-4 -8 0
-4 -9 0
-4 -10 0
-4 -11 0
-4 -12 0
-4 -13 0
-4 -14 0
-4 -15 0
-4 -16 0
-4 -17 0
-4 -18 0
-4 -19 0
-4 -20 0
-4 -21 0
-4 -22 0
-4 -23 0
-4 -24 0
-4 -25 0
-4 -26 0
-5 -6 0
-5 -7 0
-5 -8 0
-5 -9 0
-5 -10 0
-5 -11 0
-5 -12 0
-5 -13 0
-5 -14 0
-5 -15 0
-5 -16 0
-5 -17 0
-5 -18 0
-5 -19 0
-5 -20 0
-5 -21 0
-5 -22 0
-5 -23 0
-5 -24 0
-5 -25 0
-5 -26 0
-6 -7 0
-6 -8 0
-6 -9 0
-6 -10 0
-6 -11 0
-6 -12 0
-6 -13 0
-6 -14 0
-6 -15 0
-6 -16 0
-6 -17 0
-6 -18 0
-6 -19 0
-6 -20 0
-6 -21 0
-6 -22 0
-6 -23 0
-6 -24 0
-6 -25 0
-6 -26 0
-7 -8 0
-7 -9 0
-7 -10 0
-7 -11 0
-7 -12 0
-7 -13 0
-7 -14 0
-7 -15 0
-7 -16 0
-7 -17 0
-7 -18 0
-7 -19 0
-7 -20 0
-7 -21 0
-7 -22 0
-7 -23 0
-7 -24 0
-7 -25 0
-7 -26 0
-8 -9 0
-8 -10 0
-8 -11 0
-8 -12 0
-8 -13 0
-8 -14 0
-8 -15 0
-8 -16 0
-8 -17 0
-8 -18 0
-8 -19 0
-8 -20 0
-8 -21 0
-8 -22 0
-8 -23 0
-8 -24 0
-8 -25 0
-8 -26 0
-9 -10 0
-9 -11 0
-9 -12 0
-9 -13 0
-9 -14 0
-9 -15 0
-9 -16 0
-9 -17 0
-9 -18 0
-9 -19 0
-9 -20 0
-9 -21 0
-9 -22 0
-9 -23 0
-9 -24 0
-9 -25 0
-9 -26 0
-10 -11 0
-10 -12 0
-10 -13 0
-10 -14 0
-10 -15 0
-10 -16 0
-10 -17 0
-10 -18 0
-10 -19 0
-10 -20 0
-10 -21 0
-10 -22 0
-10 -23 0
-10 -24 0
-10 -25 0
-10 -26 0
-11 -12 0
-11 -13 0
-11 -14 0
-11 -15 0
-11 -16 0
-11 -17 0
-11 -18 0
-11 -19 0
-11 -20 0
-11 -21 0
-11 -22 0
-11 -23 0
-11 -24 0
-11 -25 0
-11 -26 0
-12 -13 0
-12 -14 0
-12 -15 0
-12 -16 0
-12 -17 0
-12 -18 0
-12 -19 0
-12 -20 0
-12 -21 0
-12 -22 0
-12 -23 0
-12 -24 0
-12 -25 0
-12 -26 0
-13 -14 0
-13 -15 0
-13 -16 0
-13 -17 0
-13 -18 0
-13 -19 0
-13 -20 0
-13 -21 0
-13 -22 0
-13 -23 0
-13 -24 0
-13 -25 0
-13 -26 0
-14 -15 0
-14 -16 0
-14 -17 0
-14 -18 0
-14 -19 0
-14 -20 0
-14 -21 0
-14 -22 0
-14 -23 0
-14 -24 0
-14 -25 0
-14 -26 0
-15 -16 0
-15 -17 0
-15 -18 0
-15 -19 0
-15 -20 0
-15 -21 0
-15 -22 0
-15 -23 0
-15 -24 0
-15 -25 0
-15 -26 0
-16 -17 0
-16 -18 0
-16 -19 0
-16 -20 0
-16 -21 0
-16 -22 0
-16 -23 0
-16 -24 0
-16 -25 0
-16 -26 0
-17 -18 0
-17 -19 0
-17 -20 0
-17 -21 0
-17 -22 0
-17 -23 0
-17 -24 0
-17 -25 0
-17 -26 0
-18 -19 0
-18 -20 0
-18 -21 0
-18 -22 0
-18 -23 0
-18 -24 0
-18 -25 0
-18 -26 0
-19 -20 0
-19 -21 0
-19 -22 0
-19 -23 0
-19 -24 0
-19 -25 0
-19 -26 0
-20 -21 0
-20 -22 0
-20 -23 0
-20 -24 0
-20 -25 0
-20 -26 0
-21 -22 0
-21 -23 0
-21 -24 0
-21 -25 0
-21 -26 0
-22 -23 0
-22 -24 0
-22 -25 0
-22 -26 0
-23 -24 0
-23 -25 0
-23 -26 0
-24 -25 0
-24 -26 0
-25 -26 0
-27 -28 0
-27 -29 0
-27 -30 0
-27 -31 0
-27 -32 0
-27 -33 0
-27 -34 0
-27 -35 0
-27 -36 0
-27 -37 0
-27 -38 0
-27 -39 0
-27 -40 0
-27 -41 0
-27 -42 0
-27 -43 0
-27 -44 0
-27 -45 0
-27 -46 0
-27 -47 0
-27 -48 0
-27 -49 0
-27 -50 0
-27 -51 0
-27 -52 0
-28 -29 0
-28 -30 0
-28 -31 0
-28 -32 0
-28 -33 0
-28 -34 0
-28 -35 0
-28 -36 0
-28 -37 0
-28 -38 0
-28 -39 0
-28 -40 0
-28 -41 0
-28 -42 0
-28 -43 0
-28 -44 0
-28 -45 0
-28 -46 0
-28 -47 0
-28 -48 0
-28 -49 0
-28 -50 0
-28 -51 0
-28 -52 0
-29 -30 0
-29 -31 0
-29 -32 0
-29 -33 0
-29 -34 0
-29 -35 0
-29 -36 0
-29 -37 0
-29 -38 0
-29 -39 0
-29 -40 0
-29 -41 0
-29 -42 0
-29 -43 0
-29 -44 0
-29 -45 0
-29 -46 0
-29 -47 0
-29 -48 0
-29 -49 0
-29 -50 0
-29 -51 0
-29 -52 0
-30 -31 0
-30 -32 0
-30 -33 0
-30 -34 0
-30 -35 0
-30 -36 0
-30 -37 0
-30 -38 0
-30 -39 0
-30 -40 0
-30 -41 0
-30 -42 0
-30 -43 0
-30 -44 0
-30 -45 0
-30 -46 0
-30 -47 0
-30 -48 0
-30 -49 0
-30 -50 0
-30 -51 0
-30 -52 0
-31 -32 0
-31 -33 0
-31 -34 0
-31 -35 0
-31 -36 0
-31 -37 0
-31 -38 0
-31 -39 0
-31 -40 0
-31 -41 0
-31 -42 0
-31 -43 0
-31 -44 0
-31 -45 0
-31 -46 0
-31 -47 0
-31 -48 0
-31 -49 0
-31 -50 0
-31 -51 0
-31 -52 0
-32 -33 0
-32 -34 0
-32 -35 0
-32 -36 0
-32 -37 0
-32 -38 0
-32 -39 0
-32 -40 0
-32 -41 0
-32 -42 0
-32 -43 0
-32 -44 0
-32 -45 0
-32 -46 0
-32 -47 0
-32 -48 0
-32 -49 0
-32 -50 0
-32 -51 0
-32 -52 0
-33 -34 0
-33 -35 0
-33 -36 0
-33 -37 0
-33 -38 0
-33 -39 0
-33 -40 0
-33 -41 0
-33 -42 0
-33 -43 0
-33 -44 0
-33 -45 0
-33 -46 0
-33 -47 0
-33 -48 0
-33 -49 0
-33 -50 0
-33 -51 0
-33 -52 0
-34 -35 0
-34 -36 0
-34 -37 0
-34 -38 0
-34 -39 0
-34 -40 0
-34 -41 0
-34 -42 0
-34 -43 0
-34 -44 0
-34 -45 0
-34 -46 0
-34 -47 0
-34 -48 0
-34 -49 0
-34 -50 0
-34 -51 0
-34 -52 0
-35 -36 0
-35 -37 0
-35 -38 0
-35 -39 0
-35 -40 0
-35 -41 0
-35 -42 0
-35 -43 0
-35 -44 0
-35 -45 0
-35 -46 0
-35 -47 0
-35 -48 0
-35 -49 0
-35 -50 0
-35 -51 0
-35 -52 0
-36 -37 0
-36 -38 0
-36 -39 0
-36 -40 0
-36 -41 0
-36 -42 0
-36 -43 0
-36 -44 0
-36 -45 0
-36 -46 0
-36 -47 0
-36 -48 0
-36 -49 0
-36 -50 0
-36 -51 0
-36 -52 0
-37 -38 0
-37 -39 0
-37 -40 0
-37 -41 0
-37 -42 0
-37 -43 0
-37 -44 0
-37 -45 0
-37 -46 0
-37 -47 0
-37 -48 0
-37 -49 0
-37 -50 0
-37 -51 0
-37 -52 0
-38 -39 0
-38 -40 0
-38 -41 0
-38 -42 0
-38 -43 0
-38 -44 0
-38 -45 0
-38 -46 0
-38 -47 0
-38 -48 0
-38 -49 0
-38 -50 0
-38 -51 0
-38 -52 0
-39 -40 0
-39 -41 0
-39 -42 0
-39 -43 0
-39 -44 0
-39 -45 0
-39 -46 0
-39 -47 0
-39 -48 0
-39 -49 0
-39 -50 0
-39 -51 0
-39 -52 0
-40 -41 0
-40 -42 0
-40 -43 0
-40 -44 0
-40 -45 0
-40 -46 0
-40 -47 0
-40 -48 0
-40 -49 0
-40 -50 0
-40 -51 0
-40 -52 0
-41 -42 0
-41 -43 0
-41 -44 0
-41 -45 0
-41 -46 0
-41 -47 0
-41 -48 0
-41 -49 0
-41 -50 0
-41 -51 0
-41 -52 0
-42 -43 0
-42 -44 0
-42 -45 0
-42 -46 0
-42 -47 0
-42 -48 0
-42 -49 0
-42 -50 0
-42 -51 0
-42 -52 0
-43 -44 0
-43 -45 0
-43 -46 0
-43 -47 0
-43 -48 0
-43 -49 0
-43 -50 0
-43 -51 0
-43 -52 0
-44 -45 0
-44 -46 0
-44 -47 0
-44 -48 0
-44 -49 0
-44 -50 0
-44 -51 0
-44 -52 0
-45 -46 0
-45 -47 0
-45 -48 0
-45 -49 0
-45 -50 0
-45 -51 0
-45 -52 0
-46 -47 0
-46 -48 0
-46 -49 0
-46 -50 0
-46 -51 0
-46 -52 0
-47 -48 0
-47 -49 0
-47 -50 0
-47 -51 0
-47 -52 0
-48 -49 0
-48 -50 0
-48 -51 0
-48 -52 0
-49 -50 0
-49 -51 0
-49 -52 0
-50 -51 0
-50 -52 0
-51 -52 0
-53 -54 0
-53 -55 0
-53 -56 0
-53 -57 0
-53 -58 0
-53 -59 0
-53 -60 0
-53 -61 0
-53 -62 0
-53 -63 0
-53 -64 0
-53 -65 0
-53 -66 0
-53 -67 0
-53 -68 0
-53 -69 0
-53 -70 0
-53 -71 0
-53 -72 0
-53 -73 0
-53 -74 0
-53 -75 0
-53 -76 0
-53 -77 0
-53 -78 0
-54 -55 0
-54 -56 0
-54 -57 0
-54 -58 0
-54 -59 0
-54 -60 0
-54 -61 0
-54 -62 0
-54 -63 0
-54 -64 0
-54 -65 0
-54 -66 0
-54 -67 0
-54 -68 0
-54 -69 0
-54 -70 0
-54 -71 0
-54 -72 0
-54 -73 0
-54 -74 0
-54 -75 0
-54 -76 0
-54 -77 0
-54 -78 0
-55 -56 0
-55 -57 0
-55 -58 0
-55 -59 0
-55 -60 0
-55 -61 0
-55 -62 0
-55 -63 0
-55 -64 0
-55 -65 0
-55 -66 0
-55 -67 0
-55 -68 0
-55 -69 0
-55 -70 0
-55 -71 0
-55 -72 0
-55 -73 0
-55 -74 0
-55 -75 0
-55 -76 0
-55 -77 0
-55 -78 0
-56 -57 0
-56 -58 0
-56 -59 0
-56 -60 0
-56 -61 0
-56 -62 0
-56 -63 0
-56 -64 0
-56 -65 0
-56 -66 0
-56 -67 0
-56 -68 0
-56 -69 0
-56 -70 0
-56 -71 0
-56 -72 0
-56 -73 0
-56 -74 0
-56 -75 0
-56 -76 0
-56 -77 0
-56 -78 0
-57 -58 0
-57 -59 0
-57 -60 0
-57 -61 0
-57 -62 0
-57 -63 0
-57 -64 0
-57 -65 0
-57 -66 0
-57 -67 0
-57 -68 0
-57 -69 0
-57 -70 0
-57 -71 0
-57 -72 0
-57 -73 0
-57 -74 0
-57 -75 0
-57 -76 0
-57 -77 0
-57 -78 0
-58 -59 0
-58 -60 0
-58 -61 0
-58 -62 0
-58 -63 0
-58 -64 0
-58 -65 0
-58 -66 0
-58 -67 0
-58 -68 0
-58 -69 0
-58 -70 0
-58 -71 0
-58 -72 0
-58 -73 0
-58 -74 0
-58 -75 0
-58 -76 0
-58 -77 0
-58 -78 0
-59 -60 0
-59 -61 0
-59 -62 0
-59 -63 0
-59 -64 0
-59 -65 0
-59 -66 0
-59 -67 0
-59 -68 0
-59 -69 0
-59 -70 0
-59 -71 0
-59 -72 0
-59 -73 0
-59 -74 0
-59 -75 0
-59 -76 0
-59 -77 0
-59 -78 0
-60 -61 0
-60 -62 0
-60 -63 0
-60 -64 0
-60 -65 0
-60 -66 0
-60 -67 0
-60 -68 0
-60 -69 0
-60 -70 0
-60 -71 0
-60 -72 0
-60 -73 0
-60 -74 0
-60 -75 0
-60 -76 0
-60 -77 0
-60 -78 0
-61 -62 0
-61 -63 0
-61 -64 0
-61 -65 0
-61 -66 0
-61 -67 0
-61 -68 0
-61 -69 0
-61 -70 0
-61 -71 0
-61 -72 0
-61 -73 0
-61 -74 0
-61 -75 0
-61 -76 0
-61 -77 0
-61 -78 0
-62 -63 0
-62 -64 0
-62 -65 0
-62 -66 0
-62 -67 0
-62 -68 0
-62 -69 0
-62 -70 0
-62 -71 0
-62 -72 0
-62 -73 0
-62 -74 0
-62 -75 0
-62 -76 0
-62 -77 0
-62 -78 0
-63 -64 0
-63 -65 0
-63 -66 0
-63 -67 0
-63 -68 0
-63 -69 0
-63 -70 0
-63 -71 0
-63 -72 0
-63 -73 0
-63 -74 0
-63 -75 0
-63 -76 0
-63 -77 0
-63 -78 0
-64 -65 0
-64 -66 0
-64 -67 0
-64 -68 0
-64 -69 0
-64 -70 0
-64 -71 0
-64 -72 0
-64 -73 0
-64 -74 0
-64 -75 0
-64 -76 0
-64 -77 0
-64 -78 0
-65 -66 0
-65 -67 0
-65 -68 0
-65 -69 0
-65 -70 0
-65 -71 0
-65 -72 0
-65 -73 0
-65 -74 0
-65 -75 0
-65 -76 0
-65 -77 0
-65 -78 0
-66 -67 0
-66 -68 0
-66 -69 0
-66 -70 0
-66 -71 0
-66 -72 0
-66 -73 0
-66 -74 0
-66 -75 0
-66 -76 0
-66 -77 0
-66 -78 0
-67 -68 0
-67 -69 0
-67 -70 0
-67 -71 0
-67 -72 0
-67 -73 0
-67 -74 0
-67 -75 0
-67 -76 0
-67 -77 0
-67 -78 0
-68 -69 0
-68 -70 0
-68 -71 0
-68 -72 0
-68 -73 0
-68 -74 0
-68 -75 0
-68 -76 0
-68 -77 0
-68 -78 0
-69 -70 0
-69 -71 0
-69 -72 0
-69 -73 0
-69 -74 0
-69 -75 0
-69 -76 0
-69 -77 0
-69 -78 0
-70 -71 0
-70 -72 0
-70 -73 0
-70 -74 0
-70 -75 0
-70 -76 0
-70 -77 0
-70 -78 0
-71 -72 0
-71 -73 0
-71 -74 0
-71 -75 0
-71 -76 0
-71 -77 0
-71 -78 0
-72 -73 0
-72 -74 0
-72 -75 0
-72 -76 0
-72 -77 0
-72 -78 0
-73 -74 0
-73 -75 0
-73 -76 0
-73 -77 0
-73 -78 0
-74 -75 0
-74 -76 0
-74 -77 0
-74 -78 0
-75 -76 0
-75 -77 0
-75 -78 0
-76 -77 0
-76 -78 0
-77 -78 0
-79 -80 0
-79 -81 0
-79 -82 0
-79 -83 0
-79 -84 0
-79 -85 0
-79 -86 0
-79 -87 0
-79 -88 0
-79 -89 0
-79 -90 0
-79 -91 0
-79 -92 0
-79 -93 0
-79 -94 0
-79 -95 0
-79 -96 0
-79 -97 0
-79 -98 0
-79 -99 0
-79 -100 0
-79 -101 0
-79 -102 0
-79 -103 0
-79 -104 0
-80 -81 0
-80 -82 0
-80 -83 0
-80 -84 0
-80 -85 0
-80 -86 0
-80 -87 0
-80 -88 0
-80 -89 0
-80 -90 0
-80 -91 0
-80 -92 0
-80 -93 0
-80 -94 0
-80 -95 0
-80 -96 0
-80 -97 0
-80 -98 0
-80 -99 0
-80 -100 0
-80 -101 0
-80 -102 0
-80 -103 0
-80 -104 0
-81 -82 0
-81 -83 0
-81 -84 0
-81 -85 0
-81 -86 0
-81 -87 0
-81 -88 0
-81 -89 0
-81 -90 0
-81 -91 0
-81 -92 0
-81 -93 0
-81 -94 0
-81 -95 0
-81 -96 0
-81 -97 0
-81 -98 0
-81 -99 0
-81 -100 0
-81 -101 0
-81 -102 0
-81 -103 0
-81 -104 0
-82 -83 0
-82 -84 0
-82 -85 0
-82 -86 0
-82 -87 0
-82 -88 0
-82 -89 0
-82 -90 0
-82 -91 0
-82 -92 0
-82 -93 0
-82 -94 0
-82 -95 0
-82 -96 0
-82 -97 0
-82 -98 0
-82 -99 0
-82 -100 0
-82 -101 0
-82 -102 0
-82 -103 0
-82 -104 0
-83 -84 0
-83 -85 0
-83 -86 0
-83 -87 0
-83 -88 0
-83 -89 0
-83 -90 0
-83 -91 0
-83 -92 0
-83 -93 0
-83 -94 0
-83 -95 0
-83 -96 0
-83 -97 0
-83 -98 0
-83 -99 0
-83 -100 0
-83 -101 0
-83 -102 0
-83 -103 0
-83 -104 0
-84 -85 0
-84 -86 0
-84 -87 0
-84 -88 0
-84 -89 0
-84 -90 0
-84 -91 0
-84 -92 0
-84 -93 0
-84 -94 0
-84 -95 0
-84 -96 0
-84 -97 0
-84 -98 0
-84 -99 0
-84 -100 0
-84 -101 0
-84 -102 0
-84 -103 0
-84 -104 0
-85 -86 0
-85 -87 0
-85 -88 0
-85 -89 0
-85 -90 0
-85 -91 0
-85 -92 0
-85 -93 0
-85 -94 0
-85 -95 0
-85 -96 0
-85 -97 0
-85 -98 0
-85 -99 0
-85 -100 0
-85 -101 0
-85 -102 0
-85 -103 0
-85 -104 0
-86 -87 0
-86 -88 0
-86 -89 0
-86 -90 0
-86 -91 0
-86 -92 0
-86 -93 0
-86 -94 0
-86 -95 0
-86 -96 0
-86 -97 0
-86 -98 0
-86 -99 0
-86 -100 0
-86 -101 0
-86 -102 0
-86 -103 0
-86 -104 0
-87 -88 0
-87 -89 0
-87 -90 0
-87 -91 0
-87 -92 0
-87 -93 0
-87 -94 0
-87 -95 0
-87 -96 0
-87 -97 0
-87 -98 0
-87 -99 0
-87 -100 0
-87 -101 0
-87 -102 0
-87 -103 0
-87 -104 0
-88 -89 0
-88 -90 0
-88 -91 0
-88 -92 0
-88 -93 0
-88 -94 0
-88 -95 0
-88 -96 0
-88 -97 0
-88 -98 0
-88 -99 0
-88 -100 0
-88 -101 0
-88 -102 0
-88 -103 0
-88 -104 0
-89 -90 0
-89 -91 0
-89 -92 0
-89 -93 0
-89 -94 0
-89 -95 0
-89 -96 0
-89 -97 0
-89 -98 0
-89 -99 0
-89 -100 0
-89 -101 0
-89 -102 0
-89 -103 0
-89 -104 0
-90 -91 0
-90 -92 0
-90 -93 0
-90 -94 0
-90 -95 0
-90 -96 0
-90 -97 0
-90 -98 0
-90 -99 0
-90 -100 0
-90 -101 0
-90 -102 0
-90 -103 0
-90 -104 0
-91 -92 0
-91 -93 0
-91 -94 0
-91 -95 0
-91 -96 0
-91 -97 0
-91 -98 0
-91 -99 0
-91 -100 0
-91 -101 0
-91 -102 0
-91 -103 0
-91 -104 0
-92 -93 0
-92 -94 0
-92 -95 0
-92 -96 0
-92 -97 0
-92 -98 0
-92 -99 0
-92 -100 0
-92 -101 0
-92 -102 0
-92 -103 0
-92 -104 0
-93 -94 0
-93 -95 0
-93 -96 0
-93 -97 0
-93 -98 0
-93 -99 0
-93 -100 0
-93 -101 0
-93 -102 0
-93 -103 0
-93 -104 0
-94 -95 0
-94 -96 0
-94 -97 0
-94 -98 0
-94 -99 0
-94 -100 0
-94 -101 0
-94 -102 0
-94 -103 0
-94 -104 0
-95 -96 0
-95 -97 0
-95 -98 0
-95 -99 0
-95 -100 0
-95 -101 0
-95 -102 0
-95 -103 0
-95 -104 0
-96 -97 0
-96 -98 0
-96 -99 0
-96 -100 0
-96 -101 0
-96 -102 0
-96 -103 0
-96 -104 0
-97 -98 0
-97 -99 0
-97 -100 0
-97 -101 0
-97 -102 0
-97 -103 0
-97 -104 0
-98 -99 0
-98 -100 0
-98 -101 0
-98 -102 0
-98 -103 0
-98 -104 0
-99 -100 0
-99 -101 0
-99 -102 0
-99 -103 0
-99 -104 0
-100 -101 0
-100 -102 0
-100 -103 0
-100 -104 0
-101 -102 0
-101 -103 0
-101 -104 0
-102 -103 0
-102 -104 0
-103 -104 0
-105 -106 0
-105 -107 0
-105 -108 0
-105 -109 0
-105 -110 0
-105 -111 0
-105 -112 0
-105 -113 0
-105 -114 0
-105 -115 0
-105 -116 0
-105 -117 0
-105 -118 0
-105 -119 0
-105 -120 0
-105 -121 0
-105 -122 0
-105 -123 0
-105 -124 0
-105 -125 0
-105 -126 0
-105 -127 0
-105 -128 0
-105 -129 0
-105 -130 0
-106 -107 0
-106 -108 0
-106 -109 0
-106 -110 0
-106 -111 0
-106 -112 0
-106 -113 0
-106 -114 0
-106 -115 0
-106 -116 0
-106 -117 0
-106 -118 0
-106 -119 0
-106 -120 0
-106 -121 0
-106 -122 0
-106 -123 0
-106 -124 0
-106 -125 0
-106 -126 0
-106 -127 0
-106 -128 0
-106 -129 0
-106 -130 0
-107 -108 0
-107 -109 0
-107 -110 0
-107 -111 0
-107 -112 0
-107 -113 0
-107 -114 0
-107 -115 0
-107 -116 0
-107 -117 0
-107 -118 0
-107 -119 0
-107 -120 0
-107 -121 0
-107 -122 0
-107 -123 0
-107 -124 0
-107 -125 0
-107 -126 0
-107 -127 0
-107 -128 0
-107 -129 0
-107 -130 0
-108 -109 0
-108 -110 0
-108 -111 0
-108 -112 0
-108 -113 0
-108 -114 0
-108 -115 0
-108 -116 0
-108 -117 0
-108 -118 0
-108 -119 0
-108 -120 0
-108 -121 0
-108 -122 0
-108 -123 0
-108 -124 0
-108 -125 0
-108 -126 0
-108 -127 0
-108 -128 0
-108 -129 0
-108 -130 0
-109 -110 0
-109 -111 0
-109 -112 0
-109 -113 0
-109 -114 0
-109 -115 0
-109 -116 0
-109 -117 0
-109 -118 0
-109 -119 0
-109 -120 0
-109 -121 0
-109 -122 0
-109 -123 0
-109 -124 0
-109 -125 0
-109 -126 0
-109 -127 0
-109 -128 0
-109 -129 0
-109 -130 0
-110 -111 0
-110 -112 0
-110 -113 0
-110 -114 0
-110 -115 0
-110 -116 0
-110 -117 0
-110 -118 0
-110 -119 0
-110 -120 0
-110 -121 0
-110 -122 0
-110 -123 0
-110 -124 0
-110 -125 0
-110 -126 0
-110 -127 0
-110 -128 0
-110 -129 0
-110 -130 0
-111 -112 0
-111 -113 0
-111 -114 0
-111 -115 0
-111 -116 0
-111 -117 0
-111 -118 0
-111 -119 0
-111 -120 0
-111 -121 0
-111 -122 0
-111 -123 0
-111 -124 0
-111 -125 0
-111 -126 0
-111 -127 0
-111 -128 0
-111 -129 0
-111 -130 0
-112 -113 0
-112 -114 0
-112 -115 0
-112 -116 0
-112 -117 0
-112 -118 0
-112 -119 0
-112 -120 0
-112 -121 0
-112 -122 0
-112 -123 0
-112 -124 0
-112 -125 0
-112 -126 0
-112 -127 0
-112 -128 0
-112 -129 0
-112 -130 0
-113 -114 0
-113 -115 0
-113 -116 0
-113 -117 0
-113 -118 0
-113 -119 0
-113 -120 0
-113 -121 0
-113 -122 0
-113 -123 0
-113 -124 0
-113 -125 0
-113 -126 0
-113 -127 0
-113 -128 0
-113 -129 0
-113 -130 0
-114 -115 0
-114 -116 0
-114 -117 0
-114 -118 0
-114 -119 0
-114 -120 0
-114 -121 0
-114 -122 0
-114 -123 0
-114 -124 0
-114 -125 0
-114 -126 0
-114 -127 0
-114 -128 0
-114 -129 0
-114 -130 0
-115 -116 0
-115 -117 0
-115 -118 0
-115 -119 0
-115 -120 0
-115 -121 0
-115 -122 0
-115 -123 0
-115 -124 0
-115 -125 0
-115 -126 0
-115 -127 0
-115 -128 0
-115 -129 0
-115 -130 0
-116 -117 0
-116 -118 0
-116 -119 0
-116 -120 0
-116 -121 0
-116 -122 0
-116 -123 0
-116 -124 0
-116 -125 0
-116 -126 0
-116 -127 0
-116 -128 0
-116 -129 0
-116 -130 0
-117 -118 0
-117 -119 0
-117 -120 0
-117 -121 0
-117 -122 0
-117 -123 0
-117 -124 0
-117 -125 0
-117 -126 0
-117 -127 0
-117 -128 0
-117 -129 0
-117 -130 0
-118 -119 0
-118 -120 0
-118 -121 0
-118 -122 0
-118 -123 0
-118 -124 0
-118 -125 0
-118 -126 0
-118 -127 0
-118 -128 0
-118 -129 0
-118 -130 0
-119 -120 0
-119 -121 0
-119 -122 0
-119 -123 0
-119 -124 0
-119 -125 0
-119 -126 0
-119 -127 0
-119 -128 0
-119 -129 0
-119 -130 0
-120 -121 0
-120 -122 0
-120 -123 0
-120 -124 0
-120 -125 0
-120 -126 0
-120 -127 0
-120 -128 0
-120 -129 0
-120 -130 0
-121 -122 0
-121 -123 0
-121 -124 0
-121 -125 0
-121 -126 0
-121 -127 0
-121 -128 0
-121 -129 0
-121 -130 0
-122 -123 0
-122 -124 0
-122 -125 0
-122 -126 0
-122 -127 0
-122 -128 0
-122 -129 0
-122 -130 0
-123 -124 0
-123 -125 0
-123 -126 0
-123 -127 0
-123 -128 0
-123 -129 0
-123 -130 0
-124 -125 0
-124 -126 0
-124 -127 0
-124 -128 0
-124 -129 0
-124 -130 0
-125 -126 0
-125 -127 0
-125 -128 0
-125 -129 0
-125 -130 0
-126 -127 0
-126 -128 0
-126 -129 0
-126 -130 0
-127 -128 0
-127 -129 0
-127 -130 0
-128 -129 0
-128 -130 0
-129 -130 0
-1 -27 0
-1 -27 0
-1 -28 0
-2 -27 0
-1 -35 0
-9 -27 0
-1 -36 0
-10 -27 0
-1 -37 0
-11 -27 0
-1 -39 0
-13 -27 0
-1 -41 0
-15 -27 0
-1 -46 0
-20 -27 0
-1 -48 0
-22 -27 0
-1 -49 0
-23 -27 0
-1 -50 0
-24 -27 0
-1 -51 0
-25 -27 0
-2 -28 0
-2 -28 0
-2 -34 0
-8 -28 0
-2 -36 0
-10 -28 0
-2 -37 0
-11 -28 0
-2 -40 0
-14 -28 0
-2 -42 0
-16 -28 0
-2 -43 0
-17 -28 0
-2 -47 0
-21 -28 0
-2 -50 0
-24 -28 0
-2 -51 0
-25 -28 0
-2 -52 0
-26 -28 0
-3 -29 0
-3 -29 0
-3 -34 0
-8 -29 0
-3 -35 0
-9 -29 0
-3 -37 0
-11 -29 0
-3 -38 0
-12 -29 0
-3 -44 0
-18 -29 0
-3 -45 0
-19 -29 0
-3 -47 0
-21 -29 0
-3 -48 0
-22 -29 0
-3 -49 0
-23 -29 0
-3 -52 0
-26 -29 0
-4 -30 0
-4 -30 0
-4 -33 0
-7 -30 0
-4 -35 0
-9 -30 0
-4 -39 0
-13 -30 0
-4 -40 0
-14 -30 0
-4 -41 0
-15 -30 0
-4 -43 0
-17 -30 0
-4 -44 0
-18 -30 0
-4 -46 0
-20 -30 0
-4 -47 0
-21 -30 0
-4 -52 0
-26 -30 0
-5 -31 0
-5 -31 0
-5 -33 0
-7 -31 0
-5 -36 0
-10 -31 0
-5 -38 0
-12 -31 0
-5 -40 0
-14 -31 0
-5 -42 0
-16 -31 0
-5 -43 0
-17 -31 0
-5 -45 0
-19 -31 0
-5 -46 0
-20 -31 0
-5 -48 0
-22 -31 0
-5 -49 0
-23 -31 0
-6 -32 0
-6 -32 0
-6 -33 0
-7 -32 0
-6 -34 0
-8 -32 0
-6 -38 0
-12 -32 0
-6 -39 0
-13 -32 0
-6 -41 0
-15 -32 0
-6 -42 0
-16 -32 0
-6 -44 0
-18 -32 0
-6 -45 0
-19 -32 0
-6 -50 0
-24 -32 0
-6 -51 0
-25 -32 0
-7 -33 0
-7 -33 0
-7 -37 0
-11 -33 0
-7 -42 0
-16 -33 0
-7 -44 0
-18 -33 0
-7 -46 0
-20 -33 0
-7 -47 0
-21 -33 0
-7 -49 0
-23 -33 0
-7 -51 0
-25 -33 0
-8 -34 0
-8 -34 0
-8 -35 0
-9 -34 0
-8 -36 0
-10 -34 0
-8 -38 0
-12 -34 0
-8 -43 0
-17 -34 0
-8 -44 0
-18 -34 0
-8 -46 0
-20 -34 0
-8 -51 0
-25 -34 0
-9 -35 0
-9 -35 0
-9 -36 0
-10 -35 0
-9 -39 0
-13 -35 0
-9 -42 0
-16 -35 0
-9 -45 0
-19 -35 0
-9 -46 0
-20 -35 0
-9 -47 0
-21 -35 0
-10 -36 0
-10 -36 0
-10 -40 0
-14 -36 0
-10 -41 0
-15 -36 0
-10 -42 0
-16 -36 0
-10 -44 0
-18 -36 0
-10 -49 0
-23 -36 0
-11 -37 0
-11 -37 0
-11 -42 0
-16 -37 0
-11 -44 0
-18 -37 0
-11 -46 0
-20 -37 0
-11 -48 0
-22 -37 0
-11 -50 0
-24 -37 0
-11 -52 0
-26 -37 0
-12 -38 0
-12 -38 0
-12 -39 0
-13 -38 0
-12 -40 0
-14 -38 0
-12 -46 0
-20 -38 0
-12 -49 0
-23 -38 0
-12 -50 0
-24 -38 0
-12 -52 0
-26 -38 0
-13 -39 0
-13 -39 0
-13 -40 0
-14 -39 0
-13 -42 0
-16 -39 0
-13 -48 0
-22 -39 0
-13 -51 0
-25 -39 0
-13 -52 0
-26 -39 0
-14 -40 0
-14 -40 0
-14 -44 0
-18 -40 0
-14 -47 0
-21 -40 0
-14 -48 0
-22 -40 0
-14 -50 0
-24 -40 0
-15 -41 0
-15 -41 0
-15 -43 0
-17 -41 0
-15 -44 0
-18 -41 0
-15 -45 0
-19 -41 0
-15 -49 0
-23 -41 0
-15 -50 0
-24 -41 0
-15 -52 0
-26 -41 0
-16 -42 0
-16 -42 0
-16 -45 0
-19 -42 0
-16 -52 0
-26 -42 0
-17 -43 0
-17 -43 0
-17 -45 0
-19 -43 0
-17 -46 0
-20 -43 0
-17 -48 0
-22 -43 0
-17 -51 0
-25 -43 0
-17 -52 0
-26 -43 0
-18 -44 0
-18 -44 0
-18 -48 0
-22 -44 0
-19 -45 0
-19 -45 0
-19 -47 0
-21 -45 0
-19 -48 0
-22 -45 0
-19 -50 0
-24 -45 0
-20 -46 0
-20 -46 0
-20 -50 0
-24 -46 0
-21 -47 0
-21 -47 0
-21 -49 0
-23 -47 0
-21 -50 0
-24 -47 0
-21 -51 0
-25 -47 0
-22 -48 0
-22 -48 0
-22 -51 0
-25 -48 0
-23 -49 0
-23 -49 0
-23 -51 0
-25 -49 0
-23 -52 0
-26 -49 0
-24 -50 0
-24 -50 0
-25 -51 0
-25 -51 0
-26 -52 0
-26 -52 0
-1 -53 0
-1 -53 0
-1 -54 0
-2 -53 0
-1 -61 0
-9 -53 0
-1 -62 0
-10 -53 0
-1 -63 0
-11 -53 0
-1 -65 0
-13 -53 0
-1 -67 0
-15 -53 0
-1 -72 0
-20 -53 0
-1 -74 0
-22 -53 0
-1 -75 0
-23 -53 0
-1 -76 0
-24 -53 0
-1 -77 0
-25 -53 0
-2 -54 0
-2 -54 0
-2 -60 0
-8 -54 0
-2 -62 0
-10 -54 0
-2 -63 0
-11 -54 0
-2 -66 0
-14 -54 0
-2 -68 0
-16 -54 0
-2 -69 0
-17 -54 0
-2 -73 0
-21 -54 0
-2 -76 0
-24 -54 0
-2 -77 0
-25 -54 0
-2 -78 0
-26 -54 0
-3 -55 0
-3 -55 0
-3 -60 0
-8 -55 0
-3 -61 0
-9 -55 0
-3 -63 0
-11 -55 0
-3 -64 0
-12 -55 0
-3 -70 0
-18 -55 0
-3 -71 0
-19 -55 0
-3 -73 0
-21 -55 0
-3 -74 0
-22 -55 0
-3 -75 0
-23 -55 0
-3 -78 0
-26 -55 0
-4 -56 0
-4 -56 0
-4 -59 0
-7 -56 0
-4 -61 0
-9 -56 0
-4 -65 0
-13 -56 0
-4 -66 0
-14 -56 0
-4 -67 0
-15 -56 0
-4 -69 0
-17 -56 0
-4 -70 0
-18 -56 0
-4 -72 0
-20 -56 0
-4 -73 0
-21 -56 0
-4 -78 0
-26 -56 0
-5 -57 0
-5 -57 0
-5 -59 0
-7 -57 0
-5 -62 0
-10 -57 0
-5 -64 0
-12 -57 0
-5 -66 0
-14 -57 0
-5 -68 0
-16 -57 0
-5 -69 0
-17 -57 0
-5 -71 0
-19 -57 0
-5 -72 0
-20 -57 0
-5 -74 0
-22 -57 0
-5 -75 0
-23 -57 0
-6 -58 0
-6 -58 0
-6 -59 0
-7 -58 0
-6 -60 0
-8 -58 0
-6 -64 0
-12 -58 0
-6 -65 0
-13 -58 0
-6 -67 0
-15 -58 0
-6 -68 0
-16 -58 0
-6 -70 0
-18 -58 0
-6 -71 0
-19 -58 0
-6 -76 0
-24 -58 0
-6 -77 0
-25 -58 0
-7 -59 0
-7 -59 0
-7 -63 0
-11 -59 0
-7 -68 0
-16 -59 0
-7 -70 0
-18 -59 0
-7 -72 0
-20 -59 0
-7 -73 0
-21 -59 0
-7 -75 0
-23 -59 0
-7 -77 0
-25 -59 0
-8 -60 0
-8 -60 0
-8 -61 0
-9 -60 0
-8 -62 0
-10 -60 0
-8 -64 0
-12 -60 0
-8 -69 0
-17 -60 0
-8 -70 0
-18 -60 0
-8 -72 0
-20 -60 0
-8 -77 0
-25 -60 0
-9 -61 0
-9 -61 0
-9 -62 0
-10 -61 0
-9 -65 0
-13 -61 0
-9 -68 0
-16 -61 0
-9 -71 0
-19 -61 0
-9 -72 0
-20 -61 0
-9 -73 0
-21 -61 0
-10 -62 0
-10 -62 0
-10 -66 0
-14 -62 0
-10 -67 0
-15 -62 0
-10 -68 0
-16 -62 0
-10 -70 0
-18 -62 0
-10 -75 0
-23 -62 0
-11 -63 0
-11 -63 0
-11 -68 0
-16 -63 0
-11 -70 0
-18 -63 0
-11 -72 0
-20 -63 0
-11 -74 0
-22 -63 0
-11 -76 0
-24 -63 0
-11 -78 0
-26 -63 0
-12 -64 0
-12 -64 0
-12 -65 0
-13 -64 0
-12 -66 0
-14 -64 0
-12 -72 0
-20 -64 0
-12 -75 0
-23 -64 0
-12 -76 0
-24 -64 0
-12 -78 0
-26 -64 0
-13 -65 0
-13 -65 0
-13 -66 0
-14 -65 0
-13 -68 0
-16 -65 0
-13 -74 0
-22 -65 0
-13 -77 0
-25 -65 0
-13 -78 0
-26 -65 0
-14 -66 0
-14 -66 0
-14 -70 0
-18 -66 0
-14 -73 0
-21 -66 0
-14 -74 0
-22 -66 0
-14 -76 0
-24 -66 0
-15 -67 0
-15 -67 0
-15 -69 0
-17 -67 0
-15 -70 0
-18 -67 0
-15 -71 0
-19 -67 0
-15 -75 0
-23 -67 0
-15 -76 0
-24 -67 0
-15 -78 0
-26 -67 0
-16 -68 0
-16 -68 0
-16 -71 0
-19 -68 0
-16 -78 0
-26 -68 0
-17 -69 0
-17 -69 0
-17 -71 0
-19 -69 0
-17 -72 0
-20 -69 0
-17 -74 0
-22 -69 0
-17 -77 0
-25 -69 0
-17 -78 0
-26 -69 0
-18 -70 0
-18 -70 0
-18 -74 0
-22 -70 0
-19 -71 0
-19 -71 0
-19 -73 0
-21 -71 0
-19 -74 0
-22 -71 0
-19 -76 0
-24 -71 0
-20 -72 0
-20 -72 0
-20 -76 0
-24 -72 0
-21 -73 0
-21 -73 0
-21 -75 0
-23 -73 0
-21 -76 0
-24 -73 0
-21 -77 0
-25 -73 0
-22 -74 0
-22 -74 0
-22 -77 0
-25 -74 0
-23 -75 0
-23 -75 0
-23 -77 0
-25 -75 0
-23 -78 0
-26 -75 0
-24 -76 0
-24 -76 0
-25 -77 0
-25 -77 0
-26 -78 0
-26 -78 0
-27 -53 0
-27 -53 0
-27 -54 0
-28 -53 0
-27 -61 0
-35 -53 0
-27 -62 0
-36 -53 0
-27 -63 0
-37 -53 0
-27 -65 0
-39 -53 0
-27 -67 0
-41 -53 0
-27 -72 0
-46 -53 0
-27 -74 0
-48 -53 0
-27 -75 0
-49 -53 0
-27 -76 0
-50 -53 0
-27 -77 0
-51 -53 0
-28 -54 0
-28 -54 0
-28 -60 0
-34 -54 0
-28 -62 0
-36 -54 0
-28 -63 0
-37 -54 0
-28 -66 0
-40 -54 0
-28 -68 0
-42 -54 0
-28 -69 0
-43 -54 0
-28 -73 0
-47 -54 0
-28 -76 0
-50 -54 0
-28 -77 0
-51 -54 0
-28 -78 0
-52 -54 0
-29 -55 0
-29 -55 0
-29 -60 0
-34 -55 0
-29 -61 0
-35 -55 0
-29 -63 0
-37 -55 0
-29 -64 0
-38 -55 0
-29 -70 0
-44 -55 0
-29 -71 0
-45 -55 0
-29 -73 0
-47 -55 0
-29 -74 0
-48 -55 0
-29 -75 0
-49 -55 0
-29 -78 0
-52 -55 0
-30 -56 0
-30 -56 0
-30 -59 0
-33 -56 0
-30 -61 0
-35 -56 0
-30 -65 0
-39 -56 0
-30 -66 0
-40 -56 0
-30 -67 0
-41 -56 0
-30 -69 0
-43 -56 0
-30 -70 0
-44 -56 0
-30 -72 0
-46 -56 0
-30 -73 0
-47 -56 0
-30 -78 0
-52 -56 0
-31 -57 0
-31 -57 0
-31 -59 0
-33 -57 0
-31 -62 0
-36 -57 0
-31 -64 0
-38 -57 0
-31 -66 0
-40 -57 0
-31 -68 0
-42 -57 0
-31 -69 0
-43 -57 0
-31 -71 0
-45 -57 0
-31 -72 0
-46 -57 0
-31 -74 0
-48 -57 0
-31 -75 0
-49 -57 0
-32 -58 0
-32 -58 0
-32 -59 0
-33 -58 0
-32 -60 0
-34 -58 0
-32 -64 0
-38 -58 0
-32 -65 0
-39 -58 0
-32 -67 0
-41 -58 0
-32 -68 0
-42 -58 0
-32 -70 0
-44 -58 0
-32 -71 0
-45 -58 0
-32 -76 0
-50 -58 0
-32 -77 0
-51 -58 0
-33 -59 0
-33 -59 0
-33 -63 0
-37 -59 0
-33 -68 0
-42 -59 0
-33 -70 0
-44 -59 0
-33 -72 0
-46 -59 0
-33 -73 0
-47 -59 0
-33 -75 0
-49 -59 0
-33 -77 0
-51 -59 0
-34 -60 0
-34 -60 0
-34 -61 0
-35 -60 0
-34 -62 0
-36 -60 0
-34 -64 0
-38 -60 0
-34 -69 0
-43 -60 0
-34 -70 0
-44 -60 0
-34 -72 0
-46 -60 0
-34 -77 0
-51 -60 0
-35 -61 0
-35 -61 0
-35 -62 0
-36 -61 0
-35 -65 0
-39 -61 0
-35 -68 0
-42 -61 0
-35 -71 0
-45 -61 0
-35 -72 0
-46 -61 0
-35 -73 0
-47 -61 0
-36 -62 0
-36 -62 0
-36 -66 0
-40 -62 0
-36 -67 0
-41 -62 0
-36 -68 0
-42 -62 0
-36 -70 0
-44 -62 0
-36 -75 0
-49 -62 0
-37 -63 0
-37 -63 0
-37 -68 0
-42 -63 0
-37 -70 0
-44 -63 0
-37 -72 0
-46 -63 0
-37 -74 0
-48 -63 0
-37 -76 0
-50 -63 0
-37 -78 0
-52 -63 0
-38 -64 0
-38 -64 0
-38 -65 0
-39 -64 0
-38 -66 0
-40 -64 0
-38 -72 0
-46 -64 0
-38 -75 0
-49 -64 0
-38 -76 0
-50 -64 0
-38 -78 0
-52 -64 0
-39 -65 0
-39 -65 0
-39 -66 0
-40 -65 0
-39 -68 0
-42 -65 0
-39 -74 0
-48 -65 0
-39 -77 0
-51 -65 0
-39 -78 0
-52 -65 0
-40 -66 0
-40 -66 0
-40 -70 0
-44 -66 0
-40 -73 0
-47 -66 0
-40 -74 0
-48 -66 0
-40 -76 0
-50 -66 0
-41 -67 0
-41 -67 0
-41 -69 0
-43 -67 0
-41 -70 0
-44 -67 0
-41 -71 0
-45 -67 0
-41 -75 0
-49 -67 0
-41 -76 0
-50 -67 0
-41 -78 0
-52 -67 0
-42 -68 0
-42 -68 0
-42 -71 0
-45 -68 0
-42 -78 0
-52 -68 0
-43 -69 0
-43 -69 0
-43 -71 0
-45 -69 0
-43 -72 0
-46 -69 0
-43 -74 0
-48 -69 0
-43 -77 0
-51 -69 0
-43 -78 0
-52 -69 0
-44 -70 0
-44 -70 0
-44 -74 0
-48 -70 0
-45 -71 0
-45 -71 0
-45 -73 0
-47 -71 0
-45 -74 0
-48 -71 0
-45 -76 0
-50 -71 0
-46 -72 0
-46 -72 0
-46 -76 0
-50 -72 0
-47 -73 0
-47 -73 0
-47 -75 0
-49 -73 0
-47 -76 0
-50 -73 0
-47 -77 0
-51 -73 0
-48 -74 0
-48 -74 0
-48 -77 0
-51 -74 0
-49 -75 0
-49 -75 0
-49 -77 0
-51 -75 0
-49 -78 0
-52 -75 0
-50 -76 0
-50 -76 0
-51 -77 0
-51 -77 0
-52 -78 0
-52 -78 0
-27 -79 0
-27 -79 0
-27 -80 0
-28 -79 0
-27 -87 0
-35 -79 0
-27 -88 0
-36 -79 0
-27 -89 0
-37 -79 0
-27 -91 0
-39 -79 0
-27 -93 0
-41 -79 0
-27 -98 0
-46 -79 0
-27 -100 0
-48 -79 0
-27 -101 0
-49 -79 0
-27 -102 0
-50 -79 0
-27 -103 0
-51 -79 0
-28 -80 0
-28 -80 0
-28 -86 0
-34 -80 0
-28 -88 0
-36 -80 0
-28 -89 0
-37 -80 0
-28 -92 0
-40 -80 0
-28 -94 0
-42 -80 0
-28 -95 0
-43 -80 0
-28 -99 0
-47 -80 0
-28 -102 0
-50 -80 0
-28 -103 0
-51 -80 0
-28 -104 0
-52 -80 0
-29 -81 0
-29 -81 0
-29 -86 0
-34 -81 0
-29 -87 0
-35 -81 0
-29 -89 0
-37 -81 0
-29 -90 0
-38 -81 0
-29 -96 0
-44 -81 0
-29 -97 0
-45 -81 0
-29 -99 0
-47 -81 0
-29 -100 0
-48 -81 0
-29 -101 0
-49 -81 0
-29 -104 0
-52 -81 0
-30 -82 0
-30 -82 0
-30 -85 0
-33 -82 0
-30 -87 0
-35 -82 0
-30 -91 0
-39 -82 0
-30 -92 0
-40 -82 0
-30 -93 0
-41 -82 0
-30 -95 0
-43 -82 0
-30 -96 0
-44 -82 0
-30 -98 0
-46 -82 0
-30 -99 0
-47 -82 0
-30 -104 0
-52 -82 0
-31 -83 0
-31 -83 0
-31 -85 0
-33 -83 0
-31 -88 0
-36 -83 0
-31 -90 0
-38 -83 0
-31 -92 0
-40 -83 0
-31 -94 0
-42 -83 0
-31 -95 0
-43 -83 0
-31 -97 0
-45 -83 0
-31 -98 0
-46 -83 0
-31 -100 0
-48 -83 0
-31 -101 0
-49 -83 0
-32 -84 0
-32 -84 0
-32 -85 0
-33 -84 0
-32 -86 0
-34 -84 0
-32 -90 0
-38 -84 0
-32 -91 0
-39 -84 0
-32 -93 0
-41 -84 0
-32 -94 0
-42 -84 0
-32 -96 0
-44 -84 0
-32 -97 0
-45 -84 0
-32 -102 0
-50 -84 0
-32 -103 0
-51 -84 0
-33 -85 0
-33 -85 0
-33 -89 0
-37 -85 0
-33 -94 0
-42 -85 0
-33 -96 0
-44 -85 0
-33 -98 0
-46 -85 0
-33 -99 0
-47 -85 0
-33 -101 0
-49 -85 0
-33 -103 0
-51 -85 0
-34 -86 0
-34 -86 0
-34 -87 0
-35 -86 0
-34 -88 0
-36 -86 0
-34 -90 0
-38 -86 0
-34 -95 0
-43 -86 0
-34 -96 0
-44 -86 0
-34 -98 0
-46 -86 0
-34 -103 0
-51 -86 0
-35 -87 0
-35 -87 0
-35 -88 0
-36 -87 0
-35 -91 0
-39 -87 0
-35 -94 0
-42 -87 0
-35 -97 0
-45 -87 0
-35 -98 0
-46 -87 0
-35 -99 0
-47 -87 0
-36 -88 0
-36 -88 0
-36 -92 0
-40 -88 0
-36 -93 0
-41 -88 0
-36 -94 0
-42 -88 0
-36 -96 0
-44 -88 0
-36 -101 0
-49 -88 0
-37 -89 0
-37 -89 0
-37 -94 0
-42 -89 0
-37 -96 0
-44 -89 0
-37 -98 0
-46 -89 0
-37 -100 0
-48 -89 0
-37 -102 0
-50 -89 0
-37 -104 0
-52 -89 0
-38 -90 0
-38 -90 0
-38 -91 0
-39 -90 0
-38 -92 0
-40 -90 0
-38 -98 0
-46 -90 0
-38 -101 0
-49 -90 0
-38 -102 0
-50 -90 0
-38 -104 0
-52 -90 0
-39 -91 0
-39 -91 0
-39 -92 0
-40 -91 0
-39 -94 0
-42 -91 0
-39 -100 0
-48 -91 0
-39 -103 0
-51 -91 0
-39 -104 0
-52 -91 0
-40 -92 0
-40 -92 0
-40 -96 0
-44 -92 0
-40 -99 0
-47 -92 0
-40 -100 0
-48 -92 0
-40 -102 0
-50 -92 0
-41 -93 0
-41 -93 0
-41 -95 0
-43 -93 0
-41 -96 0
-44 -93 0
-41 -97 0
-45 -93 0
-41 -101 0
-49 -93 0
-41 -102 0
-50 -93 0
-41 -104 0
-52 -93 0
-42 -94 0
-42 -94 0
-42 -97 0
-45 -94 0
-42 -104 0
-52 -94 0
-43 -95 0
-43 -95 0
-43 -97 0
-45 -95 0
-43 -98 0
-46 -95 0
-43 -100 0
-48 -95 0
-43 -103 0
-51 -95 0
-43 -104 0
-52 -95 0
-44 -96 0
-44 -96 0
-44 -100 0
-48 -96 0
-45 -97 0
-45 -97 0
-45 -99 0
-47 -97 0
-45 -100 0
-48 -97 0
-45 -102 0
-50 -97 0
-46 -98 0
-46 -98 0
-46 -102 0
-50 -98 0
-47 -99 0
-47 -99 0
-47 -101 0
-49 -99 0
-47 -102 0
-50 -99 0
-47 -103 0
-51 -99 0
-48 -100 0
-48 -100 0
-48 -103 0
-51 -100 0
-49 -101 0
-49 -101 0
-49 -103 0
-51 -101 0
-49 -104 0
-52 -101 0
-50 -102 0
-50 -102 0
-51 -103 0
-51 -103 0
-52 -104 0
-52 -104 0
-53 -79 0
-53 -79 0
-53 -80 0
-54 -79 0
-53 -87 0
-61 -79 0
-53 -88 0
-62 -79 0
-53 -89 0
-63 -79 0
-53 -91 0
-65 -79 0
-53 -93 0
-67 -79 0
-53 -98 0
-72 -79 0
-53 -100 0
-74 -79 0
-53 -101 0
-75 -79 0
-53 -102 0
-76 -79 0
-53 -103 0
-77 -79 0
-54 -80 0
-54 -80 0
-54 -86 0
-60 -80 0
-54 -88 0
-62 -80 0
-54 -89 0
-63 -80 0
-54 -92 0
-66 -80 0
-54 -94 0
-68 -80 0
-54 -95 0
-69 -80 0
-54 -99 0
-73 -80 0
-54 -102 0
-76 -80 0
-54 -103 0
-77 -80 0
-54 -104 0
-78 -80 0
-55 -81 0
-55 -81 0
-55 -86 0
-60 -81 0
-55 -87 0
-61 -81 0
-55 -89 0
-63 -81 0
-55 -90 0
-64 -81 0
-55 -96 0
-70 -81 0
-55 -97 0
-71 -81 0
-55 -99 0
-73 -81 0
-55 -100 0
-74 -81 0
-55 -101 0
-75 -81 0
-55 -104 0
-78 -81 0
-56 -82 0
-56 -82 0
-56 -85 0
-59 -82 0
-56 -87 0
-61 -82 0
-56 -91 0
-65 -82 0
-56 -92 0
-66 -82 0
-56 -93 0
-67 -82 0
-56 -95 0
-69 -82 0
-56 -96 0
-70 -82 0
-56 -98 0
-72 -82 0
-56 -99 0
-73 -82 0
-56 -104 0
-78 -82 0
-57 -83 0
-57 -83 0
-57 -85 0
-59 -83 0
-57 -88 0
-62 -83 0
-57 -90 0
-64 -83 0
-57 -92 0
-66 -83 0
-57 -94 0
-68 -83 0
-57 -95 0
-69 -83 0
-57 -97 0
-71 -83 0
-57 -98 0
-72 -83 0
-57 -100 0
-74 -83 0
-57 -101 0
-75 -83 0
-58 -84 0
-58 -84 0
-58 -85 0
-59 -84 0
-58 -86 0
-60 -84 0
-58 -90 0
-64 -84 0
-58 -91 0
-65 -84 0
-58 -93 0
-67 -84 0
-58 -94 0
-68 -84 0
-58 -96 0
-70 -84 0
-58 -97 0
-71 -84 0
-58 -102 0
-76 -84 0
-58 -103 0
-77 -84 0
-59 -85 0
-59 -85 0
-59 -89 0
-63 -85 0
-59 -94 0
-68 -85 0
-59 -96 0
-70 -85 0
-59 -98 0
-72 -85 0
-59 -99 0
-73 -85 0
-59 -101 0
-75 -85 0
-59 -103 0
-77 -85 0
-60 -86 0
-60 -86 0
-60 -87 0
-61 -86 0
-60 -88 0
-62 -86 0
-60 -90 0
-64 -86 0
-60 -95 0
-69 -86 0
-60 -96 0
-70 -86 0
-60 -98 0
-72 -86 0
-60 -103 0
-77 -86 0
-61 -87 0
-61 -87 0
-61 -88 0
-62 -87 0
-61 -91 0
-65 -87 0
-61 -94 0
-68 -87 0
-61 -97 0
-71 -87 0
-61 -98 0
-72 -87 0
-61 -99 0
-73 -87 0
-62 -88 0
-62 -88 0
-62 -92 0
-66 -88 0
-62 -93 0
-67 -88 0
-62 -94 0
-68 -88 0
-62 -96 0
-70 -88 0
-62 -101 0
-75 -88 0
-63 -89 0
-63 -89 0
-63 -94 0
-68 -89 0
-63 -96 0
-70 -89 0
-63 -98 0
-72 -89 0
-63 -100 0
-74 -89 0
-63 -102 0
-76 -89 0
-63 -104 0
-78 -89 0
-64 -90 0
-64 -90 0
-64 -91 0
-65 -90 0
-64 -92 0
-66 -90 0
-64 -98 0
-72 -90 0
-64 -101 0
-75 -90 0
-64 -102 0
-76 -90 0
-64 -104 0
-78 -90 0
-65 -91 0
-65 -91 0
-65 -92 0
-66 -91 0
-65 -94 0
-68 -91 0
-65 -100 0
-74 -91 0
-65 -103 0
-77 -91 0
-65 -104 0
-78 -91 0
-66 -92 0
-66 -92 0
-66 -96 0
-70 -92 0
-66 -99 0
-73 -92 0
-66 -100 0
-74 -92 0
-66 -102 0
-76 -92 0
-67 -93 0
-67 -93 0
-67 -95 0
-69 -93 0
-67 -96 0
-70 -93 0
-67 -97 0
-71 -93 0
-67 -101 0
-75 -93 0
-67 -102 0
-76 -93 0
-67 -104 0
-78 -93 0
-68 -94 0
-68 -94 0
-68 -97 0
-71 -94 0
-68 -104 0
-78 -94 0
-69 -95 0
-69 -95 0
-69 -97 0
-71 -95 0
-69 -98 0
-72 -95 0
-69 -100 0
-74 -95 0
-69 -103 0
-77 -95 0
-69 -104 0
-78 -95 0
-70 -96 0
-70 -96 0
-70 -100 0
-74 -96 0
-71 -97 0
-71 -97 0
-71 -99 0
-73 -97 0
-71 -100 0
-74 -97 0
-71 -102 0
-76 -97 0
-72 -98 0
-72 -98 0
-72 -102 0
-76 -98 0
-73 -99 0
-73 -99 0
-73 -101 0
-75 -99 0
-73 -102 0
-76 -99 0
-73 -103 0
-77 -99 0
-74 -100 0
-74 -100 0
-74 -103 0
-77 -100 0
-75 -101 0
-75 -101 0
-75 -103 0
-77 -101 0
-75 -104 0
-78 -101 0
-76 -102 0
-76 -102 0
-77 -103 0
-77 -103 0
-78 -104 0
-78 -104 0
-53 -105 0
-53 -105 0
-53 -106 0
-54 -105 0
-53 -113 0
-61 -105 0
-53 -114 0
-62 -105 0
-53 -115 0
-63 -105 0
-53 -117 0
-65 -105 0
-53 -119 0
-67 -105 0
-53 -124 0
-72 -105 0
-53 -126 0
-74 -105 0
-53 -127 0
-75 -105 0
-53 -128 0
-76 -105 0
-53 -129 0
-77 -105 0
-54 -106 0
-54 -106 0
-54 -112 0
-60 -106 0
-54 -114 0
-62 -106 0
-54 -115 0
-63 -106 0
-54 -118 0
-66 -106 0
-54 -120 0
-68 -106 0
-54 -121 0
-69 -106 0
-54 -125 0
-73 -106 0
-54 -128 0
-76 -106 0
-54 -129 0
-77 -106 0
-54 -130 0
-78 -106 0
-55 -107 0
-55 -107 0
-55 -112 0
-60 -107 0
-55 -113 0
-61 -107 0
-55 -115 0
-63 -107 0
-55 -116 0
-64 -107 0
-55 -122 0
-70 -107 0
-55 -123 0
-71 -107 0
-55 -125 0
-73 -107 0
-55 -126 0
-74 -107 0
-55 -127 0
-75 -107 0
-55 -130 0
-78 -107 0
-56 -108 0
-56 -108 0
-56 -111 0
-59 -108 0
-56 -113 0
-61 -108 0
-56 -117 0
-65 -108 0
-56 -118 0
-66 -108 0
-56 -119 0
-67 -108 0
-56 -121 0
-69 -108 0
-56 -122 0
-70 -108 0
-56 -124 0
-72 -108 0
-56 -125 0
-73 -108 0
-56 -130 0
-78 -108 0
-57 -109 0
-57 -109 0
-57 -111 0
-59 -109 0
-57 -114 0
-62 -109 0
-57 -116 0
-64 -109 0
-57 -118 0
-66 -109 0
-57 -120 0
-68 -109 0
-57 -121 0
-69 -109 0
-57 -123 0
-71 -109 0
-57 -124 0
-72 -109 0
-57 -126 0
-74 -109 0
-57 -127 0
-75 -109 0
-58 -110 0
-58 -110 0
-58 -111 0
-59 -110 0
-58 -112 0
-60 -110 0
-58 -116 0
-64 -110 0
-58 -117 0
-65 -110 0
-58 -119 0
-67 -110 0
-58 -120 0
-68 -110 0
-58 -122 0
-70 -110 0
-58 -123 0
-71 -110 0
-58 -128 0
-76 -110 0
-58 -129 0
-77 -110 0
-59 -111 0
-59 -111 0
-59 -115 0
-63 -111 0
-59 -120 0
-68 -111 0
-59 -122 0
-70 -111 0
-59 -124 0
-72 -111 0
-59 -125 0
-73 -111 0
-59 -127 0
-75 -111 0
-59 -129 0
-77 -111 0
-60 -112 0
-60 -112 0
-60 -113 0
-61 -112 0
-60 -114 0
-62 -112 0
-60 -116 0
-64 -112 0
-60 -121 0
-69 -112 0
-60 -122 0
-70 -112 0
-60 -124 0
-72 -112 0
-60 -129 0
-77 -112 0
-61 -113 0
-61 -113 0
-61 -114 0
-62 -113 0
-61 -117 0
-65 -113 0
-61 -120 0
-68 -113 0
-61 -123 0
-71 -113 0
-61 -124 0
-72 -113 0
-61 -125 0
-73 -113 0
-62 -114 0
-62 -114 0
-62 -118 0
-66 -114 0
-62 -119 0
-67 -114 0
-62 -120 0
-68 -114 0
-62 -122 0
-70 -114 0
-62 -127 0
-75 -114 0
-63 -115 0
-63 -115 0
-63 -120 0
-68 -115 0
-63 -122 0
-70 -115 0
-63 -124 0
-72 -115 0
-63 -126 0
-74 -115 0
-63 -128 0
-76 -115 0
-63 -130 0
-78 -115 0
-64 -116 0
-64 -116 0
-64 -117 0
-65 -116 0
-64 -118 0
-66 -116 0
-64 -124 0
-72 -116 0
-64 -127 0
-75 -116 0
-64 -128 0
-76 -116 0
-64 -130 0
-78 -116 0
-65 -117 0
-65 -117 0
-65 -118 0
-66 -117 0
-65 -120 0
-68 -117 0
-65 -126 0
-74 -117 0
-65 -129 0
-77 -117 0
-65 -130 0
-78 -117 0
-66 -118 0
-66 -118 0
-66 -122 0
-70 -118 0
-66 -125 0
-73 -118 0
-66 -126 0
-74 -118 0
-66 -128 0
-76 -118 0
-67 -119 0
-67 -119 0
-67 -121 0
-69 -119 0
-67 -122 0
-70 -119 0
-67 -123 0
-71 -119 0
-67 -127 0
-75 -119 0
-67 -128 0
-76 -119 0
-67 -130 0
-78 -119 0
-68 -120 0
-68 -120 0
-68 -123 0
-71 -120 0
-68 -130 0
-78 -120 0
-69 -121 0
-69 -121 0
-69 -123 0
-71 -121 0
-69 -124 0
-72 -121 0
-69 -126 0
-74 -121 0
-69 -129 0
-77 -121 0
-69 -130 0
-78 -121 0
-70 -122 0
-70 -122 0
-70 -126 0
-74 -122 0
-71 -123 0
-71 -123 0
-71 -125 0
-73 -123 0
-71 -126 0
-74 -123 0
-71 -128 0
-76 -123 0
-72 -124 0
-72 -124 0
-72 -128 0
-76 -124 0
-73 -125 0
-73 -125 0
-73 -127 0
-75 -125 0
-73 -128 0
-76 -125 0
-73 -129 0
-77 -125 0
-74 -126 0
-74 -126 0
-74 -129 0
-77 -126 0
-75 -127 0
-75 -127 0
-75 -129 0
-77 -127 0
-75 -130 0
-78 -127 0
-76 -128 0
-76 -128 0
-77 -129 0
-77 -129 0
-78 -130 0
-78 -130 0
-79 -105 0
-79 -105 0
-79 -106 0
-80 -105 0
-79 -113 0
-87 -105 0
-79 -114 0
-88 -105 0
-79 -115 0
-89 -105 0
-79 -117 0
-91 -105 0
-79 -119 0
-93 -105 0
-79 -124 0
-98 -105 0
-79 -126 0
-100 -105 0
-79 -127 0
-101 -105 0
-79 -128 0
-102 -105 0
-79 -129 0
-103 -105 0
-80 -106 0
-80 -106 0
-80 -112 0
-86 -106 0
-80 -114 0
-88 -106 0
-80 -115 0
-89 -106 0
-80 -118 0
-92 -106 0
-80 -120 0
-94 -106 0
-80 -121 0
-95 -106 0
-80 -125 0
-99 -106 0
-80 -128 0
-102 -106 0
-80 -129 0
-103 -106 0
-80 -130 0
-104 -106 0
-81 -107 0
-81 -107 0
-81 -112 0
-86 -107 0
-81 -113 0
-87 -107 0
-81 -115 0
-89 -107 0
-81 -116 0
-90 -107 0
-81 -122 0
-96 -107 0
-81 -123 0
-97 -107 0
-81 -125 0
-99 -107 0
-81 -126 0
-100 -107 0
-81 -127 0
-101 -107 0
-81 -130 0
-104 -107 0
-82 -108 0
-82 -108 0
-82 -111 0
-85 -108 0
-82 -113 0
-87 -108 0
-82 -117 0
-91 -108 0
-82 -118 0
-92 -108 0
-82 -119 0
-93 -108 0
-82 -121 0
-95 -108 0
-82 -122 0
-96 -108 0
-82 -124 0
-98 -108 0
-82 -125 0
-99 -108 0
-82 -130 0
-104 -108 0
-83 -109 0
-83 -109 0
-83 -111 0
-85 -109 0
-83 -114 0
-88 -109 0
-83 -116 0
-90 -109 0
-83 -118 0
-92 -109 0
-83 -120 0
-94 -109 0
-83 -121 0
-95 -109 0
-83 -123 0
-97 -109 0
-83 -124 0
-98 -109 0
-83 -126 0
-100 -109 0
-83 -127 0
-101 -109 0
-84 -110 0
-84 -110 0
-84 -111 0
-85 -110 0
-84 -112 0
-86 -110 0
-84 -116 0
-90 -110 0
-84 -117 0
-91 -110 0
-84 -119 0
-93 -110 0
-84 -120 0
-94 -110 0
-84 -122 0
-96 -110 0
-84 -123 0
-97 -110 0
-84 -128 0
-102 -110 0
-84 -129 0
-103 -110 0
-85 -111 0
-85 -111 0
-85 -115 0
-89 -111 0
-85 -120 0
-94 -111 0
-85 -122 0
-96 -111 0
-85 -124 0
-98 -111 0
-85 -125 0
-99 -111 0
-85 -127 0
-101 -111 0
-85 -129 0
-103 -111 0
-86 -112 0
-86 -112 0
-86 -113 0
-87 -112 0
-86 -114 0
-88 -112 0
-86 -116 0
-90 -112 0
-86 -121 0
-95 -112 0
-86 -122 0
-96 -112 0
-86 -124 0
-98 -112 0
-86 -129 0
-103 -112 0
-87 -113 0
-87 -113 0
-87 -114 0
-88 -113 0
-87 -117 0
-91 -113 0
-87 -120 0
-94 -113 0
-87 -123 0
-97 -113 0
-87 -124 0
-98 -113 0
-87 -125 0
-99 -113 0
-88 -114 0
-88 -114 0
-88 -118 0
-92 -114 0
-88 -119 0
-93 -114 0
-88 -120 0
-94 -114 0
-88 -122 0
-96 -114 0
-88 -127 0
-101 -114 0
-89 -115 0
-89 -115 0
-89 -120 0
-94 -115 0
-89 -122 0
-96 -115 0
-89 -124 0
-98 -115 0
-89 -126 0
-100 -115 0
-89 -128 0
-102 -115 0
-89 -130 0
-104 -115 0
-90 -116 0
-90 -116 0
-90 -117 0
-91 -116 0
-90 -118 0
-92 -116 0
-90 -124 0
-98 -116 0
-90 -127 0
-101 -116 0
-90 -128 0
-102 -116 0
-90 -130 0
-104 -116 0
-91 -117 0
-91 -117 0
-91 -118 0
-92 -117 0
-91 -120 0
-94 -117 0
-91 -126 0
-100 -117 0
-91 -129 0
-103 -117 0
-91 -130 0
-104 -117 0
-92 -118 0
-92 -118 0
-92 -122 0
-96 -118 0
-92 -125 0
-99 -118 0
-92 -126 0
-100 -118 0
-92 -128 0
-102 -118 0
-93 -119 0
-93 -119 0
-93 -121 0
-95 -119 0
-93 -122 0
-96 -119 0
-93 -123 0
-97 -119 0
-93 -127 0
-101 -119 0
-93 -128 0
-102 -119 0
-93 -130 0
-104 -119 0
-94 -120 0
-94 -120 0
-94 -123 0
-97 -120 0
-94 -130 0
-104 -120 0
-95 -121 0
-95 -121 0
-95 -123 0
-97 -121 0
-95 -124 0
-98 -121 0
-95 -126 0
-100 -121 0
-95 -129 0
-103 -121 0
-95 -130 0
-104 -121 0
-96 -122 0
-96 -122 0
-96 -126 0
-100 -122 0
-97 -123 0
-97 -123 0
-97 -125 0
-99 -123 0
-97 -126 0
-100 -123 0
-97 -128 0
-102 -123 0
-98 -124 0
-98 -124 0
-98 -128 0
-102 -124 0
-99 -125 0
-99 -125 0
-99 -127 0
-101 -125 0
-99 -128 0
-102 -125 0
-99 -129 0
-103 -125 0
-100 -126 0
-100 -126 0
-100 -129 0
-103 -126 0
-101 -127 0
-101 -127 0
-101 -129 0
-103 -127 0
-101 -130 0
-104 -127 0
-102 -128 0
-102 -128 0
-103 -129 0
-103 -129 0
-104 -130 0
-104 -130 0
